DATASET = "thpack8";
INSTANCE = "014";

WIDTH = 2200;
HEIGHT = 1100;
LENGTH = 3500;

NO_OF_SHAPES = 6;
size = [|
  300,300,300 |
  900,375,350 |
  400,400,150 |
  1500,250,200 |
  500,475,300 |
  200,200,300 |
|];

verticality = [|
  0,0,1 |
  0,0,1 |
  0,0,1 |
  0,0,1 |
  0,0,1 |
  0,0,1 |
|];

box_count = [
  31,
  12,
  25,
  17,
  13,
  22,
];
